Version identifier: 22.1.1.0 | 2022-11-28 | 9160aff4d
CPXPARAM_ClockType                               1
CPXPARAM_Read_DataCheck                          1
CPXPARAM_Threads                                 1
CPXPARAM_TimeLimit                               7200
CPXPARAM_MIP_Tolerances_AbsMIPGap                0
CPXPARAM_MIP_Tolerances_MIPGap                   0
CPXPARAM_MIP_Tolerances_Integrality              0
Tried aggregator 1 time.
MIP Presolve eliminated 517 rows and 1 columns.
MIP Presolve modified 262 coefficients.
Reduced MIP has 3216 rows, 1499 columns, and 8984 nonzeros.
Reduced MIP has 1499 binaries, 0 generals, 0 SOSs, and 0 indicators.
Presolve time = 0.01 sec. (6.18 ticks)
Probing time = 0.01 sec. (2.91 ticks)
Tried aggregator 2 times.
Detecting symmetries...
MIP Presolve eliminated 202 rows and 3 columns.
MIP Presolve modified 2 coefficients.
Aggregator did 1 substitutions.
Reduced MIP has 3013 rows, 1495 columns, and 8372 nonzeros.
Reduced MIP has 1495 binaries, 0 generals, 0 SOSs, and 0 indicators.
Presolve time = 0.02 sec. (14.36 ticks)
Probing time = 0.00 sec. (2.34 ticks)
Clique table members: 5888.
MIP emphasis: balance optimality and feasibility.
MIP search method: dynamic search.
Parallel mode: none, using 1 thread.
Root relaxation solution time = 0.06 sec. (44.34 ticks)

        Nodes                                         Cuts/
   Node  Left     Objective  IInf  Best Integer    Best Bound    ItCnt     Gap

      0     0      200.0000   672                    200.0000      880         
      0     0      200.0000   579                 ZeroHalf: 8      960         
      0     0      200.0000   694                   Cuts: 156     1139         
*     0+    0                            0.0000      200.0000              --- 
*     0+    0                            2.0000      200.0000              --- 
      0     0        cutoff              2.0000      200.0000     1139     --- 
Detecting symmetries...
      0     2      200.0000   648        2.0000      200.0000     1139     --- 
Elapsed time = 0.92 sec. (576.76 ticks, tree = 0.01 MB, solutions = 2)
     13    15      199.1429   597        2.0000      200.0000     4302     --- 
     27    25      196.6667   585        2.0000      200.0000     6834     --- 
     44    23    infeasible              2.0000      200.0000     9684     --- 
     57    26    infeasible              2.0000      200.0000    12192     --- 
     68    27      200.0000   473        2.0000      200.0000    14617     --- 
     73    30    infeasible              2.0000      200.0000    16754     --- 
     85    32      199.5714   676        2.0000      200.0000    18724     --- 
*    87    32      integral     0      150.0000      200.0000    19072   33.33%
    103    33      199.8750   709      150.0000      200.0000    21366   33.33%
    111    31      200.0000   445      150.0000      200.0000    24397   33.33%
*   137     0      integral     0      200.0000      200.0000    30875    0.00%

Zero-half cuts applied:  12

Root node processing (before b&c):
  Real time             =    0.92 sec. (576.68 ticks)
Sequential b&c:
  Real time             =    3.34 sec. (2755.58 ticks)
                          ------------
Total (root+branch&cut) =    4.26 sec. (3332.26 ticks)
Solution is feasible.

---------------------
@@@ MIP_optimal
>>> Benchmark flat100-7.cnf k 2 OPT 200 TimeCost 4.468600749969482 TimeSolve 4.290398836135864 TimeRead 0.003238677978515625 TimeTrans 0.17496323585510254
